
n_res = 6;
rcap = [52, 59, 53, 62, 662, 646];
rtype = [1, 1, 1, 1, 2, 2];
n_tasks = 50;
modes =  [{1, 2, 3, 4, 5, 6}, {7, 8, 9, 10, 11, 12}, {13, 14, 15, 16, 17, 18}, {19, 20, 21, 22, 23, 24}, {25, 26, 27, 28, 29, 30}, {31, 32, 33, 34, 35, 36}, {37, 38, 39, 40, 41, 42}, {43, 44, 45, 46, 47, 48}, {49, 50, 51, 52, 53, 54}, {55, 56, 57, 58, 59, 60}, {61, 62, 63, 64, 65, 66}, {67, 68, 69, 70, 71, 72}, {73, 74, 75, 76, 77, 78}, {79, 80, 81, 82, 83, 84}, {85, 86, 87, 88, 89, 90}, {91, 92, 93, 94, 95, 96}, {97, 98, 99, 100, 101, 102}, {103, 104, 105, 106, 107, 108}, {109, 110, 111, 112, 113, 114}, {115, 116, 117, 118, 119, 120}, {121, 122, 123, 124, 125, 126}, {127, 128, 129, 130, 131, 132}, {133, 134, 135, 136, 137, 138}, {139, 140, 141, 142, 143, 144}, {145, 146, 147, 148, 149, 150}, {151, 152, 153, 154, 155, 156}, {157, 158, 159, 160, 161, 162}, {163, 164, 165, 166, 167, 168}, {169, 170, 171, 172, 173, 174}, {175, 176, 177, 178, 179, 180}, {181, 182, 183, 184, 185, 186}, {187, 188, 189, 190, 191, 192}, {193, 194, 195, 196, 197, 198}, {199, 200, 201, 202, 203, 204}, {205, 206, 207, 208, 209, 210}, {211, 212, 213, 214, 215, 216}, {217, 218, 219, 220, 221, 222}, {223, 224, 225, 226, 227, 228}, {229, 230, 231, 232, 233, 234}, {235, 236, 237, 238, 239, 240}, {241, 242, 243, 244, 245, 246}, {247, 248, 249, 250, 251, 252}, {253, 254, 255, 256, 257, 258}, {259, 260, 261, 262, 263, 264}, {265, 266, 267, 268, 269, 270}, {271, 272, 273, 274, 275, 276}, {277, 278, 279, 280, 281, 282}, {283, 284, 285, 286, 287, 288}, {289, 290, 291, 292, 293, 294}, {295, 296, 297, 298, 299, 300}];
succ =  [{5, 3}, {12, 5}, {12, 11, 6}, {12, 11, 6}, {11, 6}, {18, 9, 8}, {12, 10, 9}, {13, 10}, {17, 16, 15, 14}, {22, 19, 17, 15}, {17, 16, 14}, {22, 18, 14}, {27, 21, 16}, {30, 27, 25, 24, 21, 20}, {30, 25, 24, 23, 21, 20}, {26, 22, 20}, {33, 30, 29, 28, 27, 25, 24}, {31, 30, 29, 28, 25, 24}, {35, 33, 31, 29, 26, 24}, {37, 36, 33, 31, 29, 28}, {36, 33, 31, 28, 26}, {33, 30, 25, 24}, {45, 40, 38, 37, 34, 33}, {44, 43, 36, 32}, {44, 37, 35, 32}, {37, 34, 32}, {38, 34, 32}, {38, 35, 34}, {34, 32}, {50, 45, 42, 38, 34}, {50, 44, 43, 42, 39, 38}, {50, 45, 42, 40, 39}, {50, 48, 43, 42, 39}, {48, 44, 43, 39}, {50, 42, 41, 40}, {41, 38}, {50, 43, 42, 41}, {49, 48, 47, 46}, {49, 47, 41}, {48, 47, 46}, {46}, {46}, {46}, {46}, {46}, {}, {}, {}, {}, {}];
n_opt = 300;
dur = [3, 7, 16, 20, 21, 25, 14, 15, 22, 26, 28, 29, 6, 7, 8, 9, 22, 23, 3, 4, 8, 9, 17, 21, 14, 20, 23, 24, 26, 28, 2, 11, 13, 17, 25, 30, 14, 15, 24, 26, 27, 30, 14, 19, 27, 28, 29, 30, 1, 2, 6, 20, 21, 26, 9, 10, 17, 18, 19, 20, 4, 7, 13, 15, 23, 28, 6, 7, 11, 14, 19, 27, 9, 17, 20, 23, 27, 29, 8, 15, 16, 17, 22, 24, 2, 5, 13, 17, 22, 23, 3, 7, 8, 22, 26, 27, 8, 15, 16, 18, 24, 29, 3, 4, 5, 16, 28, 29, 2, 4, 9, 19, 22, 29, 5, 8, 9, 10, 23, 27, 3, 6, 11, 15, 18, 23, 17, 18, 19, 22, 23, 27, 1, 2, 9, 16, 26, 27, 11, 12, 15, 17, 22, 26, 11, 13, 21, 22, 23, 28, 17, 20, 21, 23, 27, 29, 6, 8, 12, 13, 16, 20, 10, 15, 17, 20, 25, 27, 4, 5, 6, 13, 14, 30, 14, 17, 22, 24, 26, 27, 1, 16, 20, 21, 22, 25, 4, 5, 11, 12, 13, 19, 3, 6, 10, 19, 23, 24, 11, 13, 15, 20, 25, 28, 4, 5, 6, 7, 24, 25, 7, 19, 21, 22, 27, 28, 8, 10, 12, 13, 26, 29, 9, 10, 14, 15, 16, 26, 1, 5, 6, 8, 15, 16, 12, 19, 24, 27, 28, 29, 1, 6, 10, 13, 25, 30, 17, 21, 23, 26, 29, 30, 3, 10, 17, 20, 21, 25, 4, 5, 8, 9, 21, 26, 3, 5, 7, 13, 16, 23, 4, 11, 22, 24, 26, 27, 5, 6, 10, 16, 19, 20, 4, 8, 9, 11, 22, 29, 4, 6, 7, 10, 22, 25, 4, 14, 17, 20, 25, 27];
rreq = [|23, 22, 22, 22, 20, 20, 25, 25, 23, 23, 21, 19, 23, 22, 21, 19, 18, 17, 6, 5, 4, 2, 1, 1, 2, 2, 2, 2, 1, 1, 28, 27, 24, 24, 20, 19, 13, 9, 7, 6, 4, 2, 17, 17, 17, 17, 17, 17, 15, 13, 12, 10, 7, 6, 26, 26, 25, 25, 25, 24, 7, 7, 6, 5, 4, 3, 14, 13, 13, 12, 11, 10, 12, 11, 11, 11, 11, 11, 14, 13, 13, 12, 12, 12, 23, 20, 17, 14, 8, 6, 23, 20, 16, 14, 14, 12, 25, 24, 24, 24, 24, 24, 27, 24, 23, 20, 20, 17, 25, 24, 22, 22, 20, 20, 14, 13, 11, 11, 9, 8, 17, 17, 16, 15, 14, 12, 23, 22, 21, 18, 17, 16, 21, 18, 16, 15, 12, 12, 23, 20, 20, 15, 15, 12, 24, 23, 20, 19, 16, 15, 22, 21, 19, 16, 12, 10, 17, 14, 14, 9, 7, 4, 16, 15, 12, 10, 7, 3, 24, 23, 19, 19, 14, 13, 29, 26, 25, 22, 21, 19, 10, 9, 9, 8, 8, 8, 27, 21, 18, 14, 11, 9, 13, 12, 9, 7, 5, 4, 19, 17, 12, 11, 8, 4, 3, 3, 3, 2, 2, 2, 15, 14, 11, 9, 5, 4, 20, 20, 19, 19, 18, 17, 26, 25, 25, 23, 22, 22, 20, 17, 15, 11, 9, 7, 24, 24, 22, 22, 20, 20, 24, 23, 20, 16, 12, 10, 16, 15, 15, 15, 14, 14, 15, 15, 14, 14, 14, 13, 15, 14, 11, 8, 7, 4, 25, 21, 21, 14, 11, 8, 19, 16, 14, 12, 11, 8, 23, 23, 18, 18, 12, 12, 14, 12, 9, 5, 3, 2, 16, 14, 14, 12, 10, 10, 30, 28, 25, 24, 23, 21
 |25, 23, 22, 21, 20, 17, 30, 27, 25, 22, 20, 20, 30, 29, 27, 26, 26, 24, 21, 19, 15, 14, 10, 8, 27, 26, 25, 25, 24, 24, 12, 10, 8, 5, 3, 3, 14, 12, 8, 7, 6, 3, 25, 21, 21, 13, 7, 3, 28, 23, 20, 18, 13, 9, 17, 17, 16, 16, 14, 14, 6, 5, 5, 5, 5, 5, 28, 28, 28, 28, 28, 28, 19, 18, 18, 18, 18, 18, 24, 21, 19, 18, 15, 14, 23, 23, 20, 15, 11, 8, 24, 19, 15, 14, 11, 9, 17, 14, 10, 8, 7, 6, 13, 13, 13, 13, 13, 13, 7, 7, 7, 7, 7, 7, 23, 23, 21, 21, 19, 19, 9, 8, 8, 7, 6, 6, 14, 14, 12, 11, 11, 10, 13, 12, 12, 11, 11, 11, 20, 20, 16, 14, 12, 12, 17, 17, 17, 17, 17, 17, 24, 24, 21, 19, 18, 16, 27, 24, 21, 19, 16, 13, 30, 21, 20, 16, 8, 3, 10, 10, 8, 4, 4, 2, 23, 22, 21, 19, 18, 18, 28, 27, 24, 24, 21, 19, 19, 19, 15, 14, 11, 9, 26, 22, 18, 15, 10, 8, 20, 20, 20, 20, 20, 20, 21, 20, 20, 20, 20, 20, 14, 12, 10, 10, 8, 6, 8, 5, 5, 3, 3, 2, 26, 24, 24, 23, 23, 22, 25, 22, 16, 12, 10, 4, 23, 20, 20, 19, 17, 15, 26, 26, 22, 20, 15, 13, 28, 23, 21, 19, 14, 13, 25, 22, 22, 21, 19, 16, 19, 15, 14, 12, 8, 5, 27, 22, 21, 17, 13, 12, 24, 23, 16, 13, 8, 7, 20, 19, 17, 14, 14, 11, 30, 29, 28, 27, 26, 26, 21, 18, 16, 14, 11, 8, 13, 12, 11, 10, 6, 5
 |25, 25, 23, 22, 22, 21, 3, 2, 2, 2, 2, 2, 19, 18, 18, 17, 16, 15, 12, 12, 10, 9, 9, 8, 26, 24, 23, 21, 20, 18, 26, 21, 20, 15, 11, 6, 13, 13, 13, 13, 13, 13, 30, 29, 28, 28, 27, 27, 7, 6, 6, 5, 4, 4, 26, 24, 24, 22, 20, 20, 16, 16, 15, 15, 14, 14, 12, 11, 10, 10, 9, 8, 15, 12, 10, 9, 5, 4, 23, 18, 15, 9, 9, 3, 11, 11, 10, 9, 7, 7, 15, 11, 9, 8, 6, 3, 25, 25, 23, 19, 19, 17, 24, 23, 22, 21, 19, 18, 21, 21, 21, 21, 21, 21, 23, 20, 19, 13, 12, 7, 16, 16, 14, 13, 9, 9, 9, 8, 7, 7, 6, 6, 16, 13, 12, 7, 4, 3, 15, 14, 13, 10, 8, 6, 3, 2, 2, 2, 1, 1, 20, 19, 19, 18, 18, 18, 20, 20, 16, 15, 13, 11, 20, 18, 17, 15, 15, 14, 29, 23, 21, 17, 9, 6, 14, 12, 11, 8, 8, 5, 26, 21, 15, 13, 5, 3, 26, 23, 20, 17, 17, 13, 17, 17, 15, 12, 9, 9, 23, 20, 19, 15, 12, 8, 19, 19, 18, 17, 16, 16, 29, 27, 25, 23, 20, 18, 26, 23, 21, 18, 14, 12, 4, 3, 3, 3, 3, 3, 30, 28, 27, 26, 25, 24, 20, 18, 18, 17, 16, 16, 27, 27, 27, 27, 27, 27, 20, 18, 15, 14, 12, 8, 26, 24, 21, 16, 14, 8, 22, 21, 20, 19, 17, 16, 26, 25, 24, 23, 20, 19, 5, 5, 5, 5, 4, 4, 20, 19, 16, 15, 11, 11, 14, 14, 12, 11, 10, 10, 29, 20, 19, 16, 9, 4, 27, 22, 16, 11, 7, 2
 |24, 17, 16, 13, 5, 5, 14, 12, 9, 9, 6, 4, 22, 22, 22, 21, 21, 20, 26, 21, 19, 14, 10, 8, 28, 28, 28, 28, 27, 27, 29, 24, 21, 18, 15, 14, 25, 23, 23, 21, 17, 17, 19, 16, 14, 11, 7, 6, 28, 24, 22, 21, 16, 15, 22, 21, 19, 19, 17, 14, 9, 9, 9, 8, 8, 7, 21, 17, 17, 15, 14, 12, 18, 14, 11, 11, 8, 4, 27, 23, 20, 19, 13, 10, 28, 28, 28, 27, 27, 27, 16, 11, 10, 8, 3, 2, 24, 21, 16, 13, 9, 6, 12, 12, 10, 8, 8, 7, 22, 21, 21, 20, 17, 17, 29, 27, 25, 25, 23, 22, 9, 8, 6, 6, 3, 3, 29, 27, 23, 23, 19, 19, 10, 10, 10, 10, 10, 10, 20, 18, 16, 16, 12, 10, 12, 12, 9, 7, 5, 4, 29, 27, 26, 26, 24, 23, 23, 21, 18, 17, 13, 11, 27, 22, 22, 19, 16, 13, 30, 28, 27, 26, 25, 24, 24, 22, 19, 13, 11, 7, 22, 19, 15, 11, 8, 4, 12, 12, 10, 8, 5, 4, 19, 17, 13, 11, 6, 4, 30, 26, 25, 24, 21, 21, 8, 7, 7, 5, 4, 3, 26, 21, 19, 19, 15, 14, 23, 19, 13, 9, 6, 5, 19, 19, 19, 19, 19, 19, 17, 16, 12, 11, 9, 8, 27, 27, 26, 26, 24, 24, 21, 20, 20, 19, 19, 19, 21, 20, 15, 12, 11, 6, 12, 12, 12, 11, 10, 10, 27, 25, 25, 22, 18, 17, 20, 20, 18, 17, 14, 13, 26, 20, 19, 14, 9, 5, 25, 22, 21, 18, 14, 9, 26, 25, 25, 24, 23, 22, 20, 19, 17, 17, 16, 14, 22, 20, 18, 16, 14, 13
 |29, 28, 26, 25, 25, 23, 23, 20, 19, 18, 17, 16, 6, 6, 5, 4, 4, 3, 25, 23, 23, 18, 16, 14, 18, 17, 17, 16, 16, 16, 16, 14, 13, 10, 5, 2, 25, 23, 17, 14, 10, 7, 23, 20, 15, 13, 6, 3, 21, 21, 20, 18, 18, 16, 12, 12, 10, 9, 7, 5, 26, 24, 23, 21, 20, 20, 1, 1, 1, 1, 1, 1, 19, 16, 13, 10, 7, 5, 21, 19, 18, 17, 13, 10, 28, 26, 21, 15, 12, 11, 12, 10, 10, 7, 6, 6, 27, 25, 22, 19, 19, 15, 22, 20, 15, 11, 9, 8, 20, 20, 20, 19, 19, 19, 26, 25, 22, 17, 14, 12, 18, 18, 16, 15, 14, 13, 11, 11, 11, 10, 10, 9, 26, 22, 22, 19, 17, 16, 25, 21, 19, 11, 8, 4, 27, 25, 24, 22, 18, 16, 27, 26, 24, 24, 21, 21, 15, 13, 11, 10, 9, 5, 20, 18, 17, 14, 13, 9, 17, 17, 17, 17, 16, 16, 13, 11, 10, 10, 8, 7, 30, 28, 28, 27, 25, 25, 17, 17, 15, 13, 13, 11, 29, 28, 26, 26, 24, 23, 7, 7, 5, 4, 3, 3, 23, 23, 22, 21, 21, 20, 28, 27, 24, 21, 19, 19, 18, 15, 14, 13, 11, 8, 13, 12, 8, 8, 5, 4, 23, 22, 21, 20, 19, 19, 19, 17, 14, 13, 11, 7, 27, 22, 20, 17, 17, 14, 14, 14, 14, 14, 14, 14, 14, 11, 11, 10, 9, 7, 3, 3, 3, 3, 2, 2, 15, 11, 10, 6, 5, 1, 24, 22, 19, 14, 8, 5, 8, 7, 7, 6, 3, 3, 28, 20, 17, 13, 5, 5, 22, 22, 22, 22, 22, 22, 25, 22, 22, 19, 17, 14
 |16, 15, 14, 13, 13, 12, 30, 29, 29, 28, 28, 27, 6, 6, 6, 5, 5, 5, 23, 18, 18, 13, 9, 5, 26, 26, 23, 23, 19, 18, 6, 6, 6, 5, 4, 4, 15, 13, 11, 11, 9, 8, 19, 13, 11, 10, 7, 4, 22, 18, 18, 15, 15, 13, 19, 17, 16, 16, 14, 13, 23, 20, 20, 17, 17, 15, 24, 21, 13, 13, 8, 5, 20, 19, 19, 19, 19, 19, 13, 12, 10, 8, 6, 2, 9, 8, 6, 6, 5, 4, 21, 20, 18, 17, 14, 13, 22, 18, 15, 14, 11, 5, 24, 24, 24, 24, 23, 23, 18, 17, 17, 15, 14, 13, 4, 4, 4, 4, 4, 4, 24, 22, 18, 16, 14, 10, 2, 2, 2, 2, 2, 2, 19, 19, 19, 19, 19, 19, 14, 12, 11, 10, 7, 5, 10, 9, 7, 7, 6, 5, 17, 17, 17, 16, 16, 16, 26, 25, 25, 24, 24, 24, 17, 14, 12, 8, 5, 4, 18, 18, 18, 17, 17, 17, 16, 15, 13, 12, 11, 11, 13, 10, 10, 8, 4, 4, 23, 21, 19, 18, 16, 15, 30, 29, 28, 27, 26, 26, 21, 20, 19, 18, 16, 15, 29, 27, 24, 24, 20, 20, 26, 21, 18, 14, 14, 11, 21, 20, 18, 18, 17, 16, 19, 17, 15, 12, 9, 7, 10, 9, 9, 8, 7, 6, 6, 6, 4, 4, 2, 2, 29, 28, 27, 26, 25, 24, 8, 7, 7, 7, 7, 7, 22, 18, 18, 16, 13, 12, 27, 25, 25, 21, 19, 19, 12, 10, 8, 8, 6, 3, 24, 23, 22, 22, 22, 21, 30, 21, 18, 14, 11, 8, 17, 15, 11, 9, 6, 5, 9, 8, 8, 8, 7, 7, 8, 7, 7, 6, 5, 5|];